opti conp prop phon scatter
cell
4.914730   4.914730   5.406570  90.000000  90.000000 120.0
fractional
Si core  0.468200   0.000000   0.333333    4.000000
O  core  0.413100   0.266100   0.213100    0.869020
O  shel  0.431813   0.264902   0.204106   -2.869020
space
152
<<<<<<< HEAD
=======
rdirection frac 1.0 0.0 0.0   0.0 0.0 1.0
>>>>>>> 4ee3e8ac7e3f4d4e86c52737f945af3adff2f7ec
buck
Si core O shel 1283.037674      0.320500     10.660000   0.0 12.0 
buck
O shel O shel 22764.0 0.149 27.88  0.0000 12.0000 
spring
O 74.92 
three
Si core O shel O shel 2.097240   109.470000  1.8000  1.8000  3.5000 
dump every test_scatter.res
shrink 5
sc_filename sc_file
k_type incoherent
s_type rs_onion 
m_transfer 0 10.0 10 5
e_transfer 0.0 350.0 43
s_options d_dwaller
