Automatic mesh
0
MP
  3  3  3
  0.  0.  0.

