gamma-si3n4-opt-unit.car                
   1.00000000000000     
     7.7867631903479335    0.0000000000000000    0.0000000000000000
     0.0000000000000126    7.7867631903479335    0.0000000000000000
     0.0000000000000126    0.0000000000000126    7.7867631903479335
   Si   N 
    24    32
Selective dynamics
Direct
  0.1250000200000017  0.8750001499999982  0.8750001499999982   T   T   T
  0.8750001499999982  0.1250000200000017  0.8750001499999982   T   T   T
  0.6250001000000012  0.3750000599999979  0.8750001499999982   T   T   T
  0.3750000599999979  0.6250001000000012  0.8750001499999982   T   T   T
  0.7500001200000028  0.7500001200000028  0.7500001200000028   T   T   T
  0.2500000400000033  0.2500000400000033  0.7500001200000028   T   T   T
  0.6250001000000012  0.1250000200000017  0.6250001000000012   T   T   T
  0.3750000599999979  0.8750001499999982  0.6250001000000012   T   T   T
  0.1250000200000017  0.6250001000000012  0.6250001000000012   T   T   T
  0.8750001499999982  0.3750000599999979  0.6250001000000012   T   T   T
  0.0000000000000000  0.0000000000000000  0.5000000799999995   T   T   T
  0.5000000799999995  0.5000000799999995  0.5000000799999995   T   T   T
  0.8750001499999982  0.6250001000000012  0.3750000599999979   T   T   T
  0.1250000200000017  0.3750000599999979  0.3750000599999979   T   T   T
  0.3750000599999979  0.1250000200000017  0.3750000599999979   T   T   T
  0.6250001000000012  0.8750001499999982  0.3750000599999979   T   T   T
  0.2500000400000033  0.7500001200000028  0.2500000400000033   T   T   T
  0.7500001200000028  0.2500000400000033  0.2500000400000033   T   T   T
  0.1250000200000017  0.1250000200000017  0.1250000200000017   T   T   T
  0.3750000599999979  0.3750000599999979  0.1250000200000017   T   T   T
  0.6250001000000012  0.6250001000000012  0.1250000200000017   T   T   T
  0.8750001499999982  0.8750001499999982  0.1250000200000017   T   T   T
  0.5000000799999995  0.0000000000000000  0.0000000000000000   T   T   T
  0.0000000000000000  0.5000000799999995  0.0000000000000000   T   T   T
  0.8824373290305980  0.8824373290305980  0.8824373290305980   T   T   T
  0.6175629209694014  0.6175629209694014  0.8824373290305980   T   T   T
  0.3824372390305978  0.3824372390305978  0.8824373290305980   T   T   T
  0.1175628409694018  0.1175628409694018  0.8824373290305980   T   T   T
  0.3675628809694050  0.8675629609694047  0.8675629609694047   T   T   T
  0.1324371990306016  0.6324372890305947  0.8675629609694047   T   T   T
  0.8675629609694047  0.3675628809694050  0.8675629609694047   T   T   T
  0.6324372890305947  0.1324371990306016  0.8675629609694047   T   T   T
  0.8675629609694047  0.1324371990306016  0.6324372890305947   T   T   T
  0.3675628809694050  0.6324372890305947  0.6324372890305947   T   T   T
  0.6324372890305947  0.3675628809694050  0.6324372890305947   T   T   T
  0.1324371990306016  0.8675629609694047  0.6324372890305947   T   T   T
  0.1175628409694018  0.3824372390305978  0.6175629209694014   T   T   T
  0.8824373290305980  0.6175629209694014  0.6175629209694014   T   T   T
  0.6175629209694014  0.8824373290305980  0.6175629209694014   T   T   T
  0.3824372390305978  0.1175628409694018  0.6175629209694014   T   T   T
  0.3824372390305978  0.8824373290305980  0.3824372390305978   T   T   T
  0.6175629209694014  0.1175628409694018  0.3824372390305978   T   T   T
  0.8824373290305980  0.3824372390305978  0.3824372390305978   T   T   T
  0.1175628409694018  0.6175629209694014  0.3824372390305978   T   T   T
  0.6324372890305947  0.6324372890305947  0.3675628809694050   T   T   T
  0.1324371990306016  0.1324371990306016  0.3675628809694050   T   T   T
  0.3675628809694050  0.3675628809694050  0.3675628809694050   T   T   T
  0.8675629609694047  0.8675629609694047  0.3675628809694050   T   T   T
  0.1324371990306016  0.3675628809694050  0.1324371990306016   T   T   T
  0.3675628809694050  0.1324371990306016  0.1324371990306016   T   T   T
  0.6324372890305947  0.8675629609694047  0.1324371990306016   T   T   T
  0.8675629609694047  0.6324372890305947  0.1324371990306016   T   T   T
  0.8824373290305980  0.1175628409694018  0.1175628409694018   T   T   T
  0.1175628409694018  0.8824373290305980  0.1175628409694018   T   T   T
  0.3824372390305978  0.6175629209694014  0.1175628409694018   T   T   T
  0.6175629209694014  0.3824372390305978  0.1175628409694018   T   T   T
 
  0.00000000E+00  0.00000000E+00  0.00000000E+00
  0.00000000E+00  0.00000000E+00  0.00000000E+00
  0.00000000E+00  0.00000000E+00  0.00000000E+00
  0.00000000E+00  0.00000000E+00  0.00000000E+00
  0.00000000E+00  0.00000000E+00  0.00000000E+00
  0.00000000E+00  0.00000000E+00  0.00000000E+00
  0.00000000E+00  0.00000000E+00  0.00000000E+00
  0.00000000E+00  0.00000000E+00  0.00000000E+00
  0.00000000E+00  0.00000000E+00  0.00000000E+00
  0.00000000E+00  0.00000000E+00  0.00000000E+00
  0.00000000E+00  0.00000000E+00  0.00000000E+00
  0.00000000E+00  0.00000000E+00  0.00000000E+00
  0.00000000E+00  0.00000000E+00  0.00000000E+00
  0.00000000E+00  0.00000000E+00  0.00000000E+00
  0.00000000E+00  0.00000000E+00  0.00000000E+00
  0.00000000E+00  0.00000000E+00  0.00000000E+00
  0.00000000E+00  0.00000000E+00  0.00000000E+00
  0.00000000E+00  0.00000000E+00  0.00000000E+00
  0.00000000E+00  0.00000000E+00  0.00000000E+00
  0.00000000E+00  0.00000000E+00  0.00000000E+00
  0.00000000E+00  0.00000000E+00  0.00000000E+00
  0.00000000E+00  0.00000000E+00  0.00000000E+00
  0.00000000E+00  0.00000000E+00  0.00000000E+00
  0.00000000E+00  0.00000000E+00  0.00000000E+00
  0.00000000E+00  0.00000000E+00  0.00000000E+00
  0.00000000E+00  0.00000000E+00  0.00000000E+00
  0.00000000E+00  0.00000000E+00  0.00000000E+00
  0.00000000E+00  0.00000000E+00  0.00000000E+00
  0.00000000E+00  0.00000000E+00  0.00000000E+00
  0.00000000E+00  0.00000000E+00  0.00000000E+00
  0.00000000E+00  0.00000000E+00  0.00000000E+00
  0.00000000E+00  0.00000000E+00  0.00000000E+00
  0.00000000E+00  0.00000000E+00  0.00000000E+00
  0.00000000E+00  0.00000000E+00  0.00000000E+00
  0.00000000E+00  0.00000000E+00  0.00000000E+00
  0.00000000E+00  0.00000000E+00  0.00000000E+00
  0.00000000E+00  0.00000000E+00  0.00000000E+00
  0.00000000E+00  0.00000000E+00  0.00000000E+00
  0.00000000E+00  0.00000000E+00  0.00000000E+00
  0.00000000E+00  0.00000000E+00  0.00000000E+00
  0.00000000E+00  0.00000000E+00  0.00000000E+00
  0.00000000E+00  0.00000000E+00  0.00000000E+00
  0.00000000E+00  0.00000000E+00  0.00000000E+00
  0.00000000E+00  0.00000000E+00  0.00000000E+00
  0.00000000E+00  0.00000000E+00  0.00000000E+00
  0.00000000E+00  0.00000000E+00  0.00000000E+00
  0.00000000E+00  0.00000000E+00  0.00000000E+00
  0.00000000E+00  0.00000000E+00  0.00000000E+00
  0.00000000E+00  0.00000000E+00  0.00000000E+00
  0.00000000E+00  0.00000000E+00  0.00000000E+00
  0.00000000E+00  0.00000000E+00  0.00000000E+00
  0.00000000E+00  0.00000000E+00  0.00000000E+00
  0.00000000E+00  0.00000000E+00  0.00000000E+00
  0.00000000E+00  0.00000000E+00  0.00000000E+00
  0.00000000E+00  0.00000000E+00  0.00000000E+00
  0.00000000E+00  0.00000000E+00  0.00000000E+00
