generated by phonopy                    
   1.00000000000000     
     7.8968828318389797    0.0000000000000000    0.0000000000000000
     0.0000000000000000    7.8968828318389797    0.0000000000000000
     0.0000000000000000    0.0000000000000000    7.8968828318389797
   Pd   H 
    32     1
Direct
  0.7510525479734410  0.2489474520265591  0.7510525479734410
  0.2489474520265591  0.7510525479734410  0.7510525479734410
  0.2489474520265591  0.2489474520265591  0.7510525479734410
  0.7510525479734410  0.7510525479734410  0.7510525479734410
  0.5000000000000000  0.5000000000000000  0.7528063688974654
  0.5000000000000000 -0.0000000000000000  0.7504492679762487
 -0.0000000000000000  0.5000000000000000  0.7504492679762487
  0.0000000000000000 -0.0000000000000000  0.7499672210412276
  0.2471936311025345  0.5000000000000000  0.5000000000000000
  0.7528063688974654  0.5000000000000000  0.5000000000000000
  0.5000000000000000  0.2471936311025345  0.5000000000000000
  0.5000000000000000  0.7528063688974654  0.5000000000000000
  0.0000000000000000  0.2495507320237511  0.5000000000000000
  0.0000000000000000  0.7504492679762487  0.5000000000000000
  0.2495507320237511  0.0000000000000000  0.5000000000000000
  0.7504492679762487 -0.0000000000000000  0.5000000000000000
  0.2489474520265591  0.2489474520265591  0.2489474520265591
  0.7510525479734410  0.7510525479734410  0.2489474520265591
  0.2489474520265591  0.7510525479734410  0.2489474520265591
  0.7510525479734410  0.2489474520265591  0.2489474520265591
  0.5000000000000000  0.5000000000000000  0.2471936311025345
  0.5000000000000000  0.0000000000000000  0.2495507320237511
  0.0000000000000000  0.5000000000000000  0.2495507320237511
  0.0000000000000000 -0.0000000000000000  0.2500327789587721
  0.2495507320237511  0.5000000000000000  0.0000000000000000
  0.7504492679762487  0.5000000000000000  0.0000000000000000
  0.5000000000000000  0.2495507320237511  0.0000000000000000
  0.5000000000000000  0.7504492679762487  0.0000000000000000
  0.2500327789587721 -0.0000000000000000  0.0000000000000000
  0.7499672210412276 -0.0000000000000000  0.0000000000000000
  0.0000000000000000  0.2500327789587721  0.0000000000000000
  0.0000000000000000  0.7499672210412276  0.0000000000000000
  0.5000000000000000  0.5000000000000000  0.5000000000000000
 
  0.00000000E+00  0.00000000E+00  0.00000000E+00
  0.00000000E+00  0.00000000E+00  0.00000000E+00
  0.00000000E+00  0.00000000E+00  0.00000000E+00
  0.00000000E+00  0.00000000E+00  0.00000000E+00
  0.00000000E+00  0.00000000E+00  0.00000000E+00
  0.00000000E+00  0.00000000E+00  0.00000000E+00
  0.00000000E+00  0.00000000E+00  0.00000000E+00
  0.00000000E+00  0.00000000E+00  0.00000000E+00
  0.00000000E+00  0.00000000E+00  0.00000000E+00
  0.00000000E+00  0.00000000E+00  0.00000000E+00
  0.00000000E+00  0.00000000E+00  0.00000000E+00
  0.00000000E+00  0.00000000E+00  0.00000000E+00
  0.00000000E+00  0.00000000E+00  0.00000000E+00
  0.00000000E+00  0.00000000E+00  0.00000000E+00
  0.00000000E+00  0.00000000E+00  0.00000000E+00
  0.00000000E+00  0.00000000E+00  0.00000000E+00
  0.00000000E+00  0.00000000E+00  0.00000000E+00
  0.00000000E+00  0.00000000E+00  0.00000000E+00
  0.00000000E+00  0.00000000E+00  0.00000000E+00
  0.00000000E+00  0.00000000E+00  0.00000000E+00
  0.00000000E+00  0.00000000E+00  0.00000000E+00
  0.00000000E+00  0.00000000E+00  0.00000000E+00
  0.00000000E+00  0.00000000E+00  0.00000000E+00
  0.00000000E+00  0.00000000E+00  0.00000000E+00
  0.00000000E+00  0.00000000E+00  0.00000000E+00
  0.00000000E+00  0.00000000E+00  0.00000000E+00
  0.00000000E+00  0.00000000E+00  0.00000000E+00
  0.00000000E+00  0.00000000E+00  0.00000000E+00
  0.00000000E+00  0.00000000E+00  0.00000000E+00
  0.00000000E+00  0.00000000E+00  0.00000000E+00
  0.00000000E+00  0.00000000E+00  0.00000000E+00
  0.00000000E+00  0.00000000E+00  0.00000000E+00
  0.00000000E+00  0.00000000E+00  0.00000000E+00
