Si N                                    
   1.00000000000000     
     7.6595137795552795    0.0000000000000000    0.0000000000000000
    -3.8297568897776397    6.6333335137318326    0.0000000000000000
     0.0000000000000000    0.0000000000000000    2.9247116510287272
   Si   N 
     6     8
Direct
  0.1749573504695334  0.4061017734703825  0.7500000000000000
  0.5938982265296104  0.7688555769991510  0.7500000000000000
  0.2311444230008490  0.8250426495304737  0.7500000000000000
  0.8250426495304737  0.5938982265296104  0.2500000000000000
  0.4061017734703825  0.2311444230008490  0.2500000000000000
  0.7688555769991510  0.1749573504695334  0.2500000000000000
  0.3299722757574060  0.2992078213483040  0.7500000000000000
  0.7007921786516960  0.0307644544091019  0.7500000000000000
  0.9692355455908981  0.6700277242425940  0.7500000000000000
  0.3333333333333357  0.6666666666666642  0.7448712892791589
  0.6700277242425940  0.7007921786516960  0.2500000000000000
  0.2992078213483040  0.9692355455908981  0.2500000000000000
  0.0307644544091019  0.3299722757574060  0.2500000000000000
  0.6666666666666643  0.3333333333333357  0.2500000000000000
 
  0.00000000E+00  0.00000000E+00  0.00000000E+00
  0.00000000E+00  0.00000000E+00  0.00000000E+00
  0.00000000E+00  0.00000000E+00  0.00000000E+00
  0.00000000E+00  0.00000000E+00  0.00000000E+00
  0.00000000E+00  0.00000000E+00  0.00000000E+00
  0.00000000E+00  0.00000000E+00  0.00000000E+00
  0.00000000E+00  0.00000000E+00  0.00000000E+00
  0.00000000E+00  0.00000000E+00  0.00000000E+00
  0.00000000E+00  0.00000000E+00  0.00000000E+00
  0.00000000E+00  0.00000000E+00  0.00000000E+00
  0.00000000E+00  0.00000000E+00  0.00000000E+00
  0.00000000E+00  0.00000000E+00  0.00000000E+00
  0.00000000E+00  0.00000000E+00  0.00000000E+00
  0.00000000E+00  0.00000000E+00  0.00000000E+00
