Automatic mesh
0
Monkhorst-Pack
  4  4  8
 0.5 0.5  0.

