Si N                                    
   1.00000000000000     
     7.6595137795552795    0.0000000000000000    0.0000000000000000
    -3.8297568897776397    6.6333335137318326    0.0000000000000000
     0.0000000000000000    0.0000000000000000    2.9247116510287272
   Si   N 
     6     8
Direct
  0.1749573504695311  0.4061017734703801  0.7500000000000000
  0.5938982265296130  0.7688555769991519  0.7500000000000000
  0.2311444230008484  0.8250426495304702  0.7500000000000000
  0.8250426495304702  0.5938982265296130  0.2500000000000000
  0.4061017734703801  0.2311444230008484  0.2500000000000000
  0.7688555769991519  0.1749573504695311  0.2500000000000000
  0.3299722757574065  0.2992078213483017  0.7500000000000000
  0.7007921786516987  0.0307644544091047  0.7500000000000000
  0.9692355455908970  0.6700277242425928  0.7500000000000000
  0.3333333333333357  0.6666666666666643  0.7500000000000000
  0.6700277242425928  0.7007921786516987  0.2500000000000000
  0.2992078213483017  0.9692355455908970  0.2500000000000000
  0.0307644544091047  0.3299722757574065  0.2500000000000000
  0.6666666666666643  0.3333333333333357  0.2500000000000000
 
  0.00000000E+00  0.00000000E+00  0.00000000E+00
  0.00000000E+00  0.00000000E+00  0.00000000E+00
  0.00000000E+00  0.00000000E+00  0.00000000E+00
  0.00000000E+00  0.00000000E+00  0.00000000E+00
  0.00000000E+00  0.00000000E+00  0.00000000E+00
  0.00000000E+00  0.00000000E+00  0.00000000E+00
  0.00000000E+00  0.00000000E+00  0.00000000E+00
  0.00000000E+00  0.00000000E+00  0.00000000E+00
  0.00000000E+00  0.00000000E+00  0.00000000E+00
  0.00000000E+00  0.00000000E+00  0.00000000E+00
  0.00000000E+00  0.00000000E+00  0.00000000E+00
  0.00000000E+00  0.00000000E+00  0.00000000E+00
  0.00000000E+00  0.00000000E+00  0.00000000E+00
  0.00000000E+00  0.00000000E+00  0.00000000E+00
