Si N                                    
   1.00000000000000     
     7.8079969443386954    0.0000000000000000    0.0000000000000000
    -3.9039984721693477    6.7619237064685818    0.0000000000000000
     0.0000000000000000    0.0000000000000000    5.6590777347249741
   Si   N 
    12    16
Direct
  0.7465503070194686  0.8327336065328197  0.0491001773687216
  0.1672663934671874  0.9138167004866560  0.0491001773687216
  0.0861832995133440  0.2534496929805314  0.0491001773687216
  0.4878765929420652  0.9175786168329125  0.3409105709909355
  0.4297020238908473  0.5121234070579348  0.3409105709909355
  0.0824213831670875  0.5702979761091527  0.3409105709909355
  0.8327336065328197  0.7465503070194686  0.5491001773687287
  0.9138167004866560  0.1672663934671874  0.5491001773687287
  0.2534496929805314  0.0861832995133440  0.5491001773687287
  0.9175786168329125  0.4878765929420652  0.8409105709909355
  0.5121234070579348  0.4297020238908473  0.8409105709909355
  0.5702979761091527  0.0824213831670875  0.8409105709909355
  0.0000000000000000  0.0000000000000000  0.0484121273487546
  0.3445437781333567  0.3900055328498482  0.0681335718663831
  0.6099944671501518  0.9545382452835227  0.0681335718663831
  0.0454617547164773  0.6554562218666433  0.0681335718663831
  0.6811706858530471  0.6854624620645140  0.3030110936878359
  0.0042917762114740  0.3188293141469529  0.3030110936878359
  0.3145375379354860  0.9957082237885260  0.3030110936878359
  0.3333333333333358  0.6666666666666643  0.3938910723293506
  0.0000000000000000  0.0000000000000000  0.5484121273487546
  0.3900055328498482  0.3445437781333567  0.5681335718663831
  0.9545382452835227  0.6099944671501518  0.5681335718663831
  0.6554562218666433  0.0454617547164773  0.5681335718663831
  0.6854624620645140  0.6811706858530471  0.8030110936878359
  0.3188293141469529  0.0042917762114740  0.8030110936878359
  0.9957082237885260  0.3145375379354860  0.8030110936878359
  0.6666666666666643  0.3333333333333357  0.8965416809096070
 
  0.00000000E+00  0.00000000E+00  0.00000000E+00
  0.00000000E+00  0.00000000E+00  0.00000000E+00
  0.00000000E+00  0.00000000E+00  0.00000000E+00
  0.00000000E+00  0.00000000E+00  0.00000000E+00
  0.00000000E+00  0.00000000E+00  0.00000000E+00
  0.00000000E+00  0.00000000E+00  0.00000000E+00
  0.00000000E+00  0.00000000E+00  0.00000000E+00
  0.00000000E+00  0.00000000E+00  0.00000000E+00
  0.00000000E+00  0.00000000E+00  0.00000000E+00
  0.00000000E+00  0.00000000E+00  0.00000000E+00
  0.00000000E+00  0.00000000E+00  0.00000000E+00
  0.00000000E+00  0.00000000E+00  0.00000000E+00
  0.00000000E+00  0.00000000E+00  0.00000000E+00
  0.00000000E+00  0.00000000E+00  0.00000000E+00
  0.00000000E+00  0.00000000E+00  0.00000000E+00
  0.00000000E+00  0.00000000E+00  0.00000000E+00
  0.00000000E+00  0.00000000E+00  0.00000000E+00
  0.00000000E+00  0.00000000E+00  0.00000000E+00
  0.00000000E+00  0.00000000E+00  0.00000000E+00
  0.00000000E+00  0.00000000E+00  0.00000000E+00
  0.00000000E+00  0.00000000E+00  0.00000000E+00
  0.00000000E+00  0.00000000E+00  0.00000000E+00
  0.00000000E+00  0.00000000E+00  0.00000000E+00
  0.00000000E+00  0.00000000E+00  0.00000000E+00
  0.00000000E+00  0.00000000E+00  0.00000000E+00
  0.00000000E+00  0.00000000E+00  0.00000000E+00
  0.00000000E+00  0.00000000E+00  0.00000000E+00
  0.00000000E+00  0.00000000E+00  0.00000000E+00
