Si N                                    
   1.00000000000000     
     7.8079969443386954    0.0000000000000000    0.0000000000000000
    -3.9039984721693477    6.7619237064685818    0.0000000000000000
     0.0000000000000000    0.0000000000000000    5.6590777347249741
   Si   N 
    12    16
Direct
  0.7465503070194702  0.8327336065328170  0.0491001773687238
  0.1672663934671843  0.9138167004866554  0.0491001773687238
  0.0861832995133452  0.2534496929805291  0.0491001773687238
  0.4878765929420618  0.9175786168329142  0.3409105709909321
  0.4297020238908497  0.5121234070579379  0.3409105709909321
  0.0824213831670880  0.5702979761091498  0.3409105709909321
  0.8327336065328170  0.7465503070194702  0.5491001773687253
  0.9138167004866554  0.1672663934671843  0.5491001773687253
  0.2534496929805291  0.0861832995133452  0.5491001773687253
  0.9175786168329142  0.4878765929420618  0.8409105709909320
  0.5121234070579379  0.4297020238908497  0.8409105709909320
  0.5702979761091498  0.0824213831670880  0.8409105709909320
  0.0000000000000000  0.0000000000000000  0.0484121273487521
  0.3445437781333593  0.3900055328498458  0.0681335718663841
  0.6099944671501545  0.9545382452835203  0.0681335718663841
  0.0454617547164791  0.6554562218666403  0.0681335718663841
  0.6811706858530497  0.6854624620645172  0.3030110936878387
  0.0042917762114741  0.3188293141469495  0.3030110936878387
  0.3145375379354829  0.9957082237885262  0.3030110936878387
  0.3333333333333357  0.6666666666666643  0.3965416809096072
  0.0000000000000000  0.0000000000000000  0.5484121273487523
  0.3900055328498458  0.3445437781333593  0.5681335718663847
  0.9545382452835203  0.6099944671501545  0.5681335718663847
  0.6554562218666403  0.0454617547164791  0.5681335718663847
  0.6854624620645172  0.6811706858530497  0.8030110936878385
  0.3188293141469495  0.0042917762114741  0.8030110936878385
  0.9957082237885262  0.3145375379354829  0.8030110936878385
  0.6666666666666643  0.3333333333333357  0.8965416809096074
 
  0.00000000E+00  0.00000000E+00  0.00000000E+00
  0.00000000E+00  0.00000000E+00  0.00000000E+00
  0.00000000E+00  0.00000000E+00  0.00000000E+00
  0.00000000E+00  0.00000000E+00  0.00000000E+00
  0.00000000E+00  0.00000000E+00  0.00000000E+00
  0.00000000E+00  0.00000000E+00  0.00000000E+00
  0.00000000E+00  0.00000000E+00  0.00000000E+00
  0.00000000E+00  0.00000000E+00  0.00000000E+00
  0.00000000E+00  0.00000000E+00  0.00000000E+00
  0.00000000E+00  0.00000000E+00  0.00000000E+00
  0.00000000E+00  0.00000000E+00  0.00000000E+00
  0.00000000E+00  0.00000000E+00  0.00000000E+00
  0.00000000E+00  0.00000000E+00  0.00000000E+00
  0.00000000E+00  0.00000000E+00  0.00000000E+00
  0.00000000E+00  0.00000000E+00  0.00000000E+00
  0.00000000E+00  0.00000000E+00  0.00000000E+00
  0.00000000E+00  0.00000000E+00  0.00000000E+00
  0.00000000E+00  0.00000000E+00  0.00000000E+00
  0.00000000E+00  0.00000000E+00  0.00000000E+00
  0.00000000E+00  0.00000000E+00  0.00000000E+00
  0.00000000E+00  0.00000000E+00  0.00000000E+00
  0.00000000E+00  0.00000000E+00  0.00000000E+00
  0.00000000E+00  0.00000000E+00  0.00000000E+00
  0.00000000E+00  0.00000000E+00  0.00000000E+00
  0.00000000E+00  0.00000000E+00  0.00000000E+00
  0.00000000E+00  0.00000000E+00  0.00000000E+00
  0.00000000E+00  0.00000000E+00  0.00000000E+00
  0.00000000E+00  0.00000000E+00  0.00000000E+00
